NAME : HealthcareRouting
TYPE : CVRP
DIMENSION : 3
EDGE_WEIGHT_TYPE : EUC_2D
CAPACITY : 10000
NODE_COORD_SECTION
1 409300 435800
2 409351 435734
3 409289 436065
DEMAND_SECTION
1 0
2 556
3 421
DEPOT_SECTION
1
-1
EOF